# Solution for model obj
# Objective value = 101000
z 101000
x#1#6 0
x#1#5 1
x#1#4 0
x#1#3 0
x#1#2 1
x#2#1 0
x#2#6 1
x#2#5 0
x#2#4 0
x#2#3 1
x#3#1 1
x#3#6 0
x#3#5 1
x#3#4 0
x#3#2 0
x#4#1 0
x#4#6 0
x#4#5 0
x#4#3 1
x#4#2 1
x#5#1 0
x#5#6 1
x#5#4 1
x#5#3 0
x#5#2 0
x#6#1 1
x#6#5 0
x#6#4 1
x#6#3 0
x#6#2 0
f#1#2#6 26000
f#1#2#5 0
f#1#2#4 0
f#1#2#3 43000
f#1#6#2 0
f#1#5#2 0
f#1#4#2 0
f#1#3#2 0
f#1#1#2 93000
f#1#3#6 0
f#1#3#5 0
f#1#3#4 0
f#1#6#3 0
f#1#5#3 0
f#1#4#3 0
f#1#1#3 0
f#1#4#6 0
f#1#4#5 0
f#1#6#4 0
f#1#5#4 23000
f#1#1#4 0
f#1#5#6 15000
f#1#6#5 0
f#1#1#5 59000
f#1#1#6 0
f#2#3#6 0
f#2#3#5 0
f#2#3#4 0
f#2#3#1 21000
f#2#6#3 0
f#2#5#3 0
f#2#4#3 0
f#2#2#3 21000
f#2#1#3 0
f#2#4#6 0
f#2#4#5 0
f#2#4#1 0
f#2#6#4 0
f#2#5#4 0
f#2#2#4 0
f#2#1#4 0
f#2#5#6 0
f#2#5#1 0
f#2#6#5 0
f#2#2#5 0
f#2#1#5 21000
f#2#6#1 0
f#2#2#6 18000
f#2#1#6 0
f#2#2#1 0
f#3#2#6 0
f#3#2#5 0
f#3#2#4 0
f#3#2#1 0
f#3#6#2 0
f#3#5#2 0
f#3#4#2 0
f#3#3#2 0
f#3#1#2 0
f#3#4#6 0
f#3#4#5 0
f#3#4#1 0
f#3#6#4 0
f#3#5#4 20000
f#3#3#4 0
f#3#1#4 0
f#3#5#6 0
f#3#5#1 0
f#3#6#5 0
f#3#3#5 61000
f#3#1#5 3000
f#3#6#1 0
f#3#3#6 0
f#3#1#6 0
f#3#3#1 19000
f#4#2#6 57000
f#4#2#5 0
f#4#2#3 0
f#4#2#1 0
f#4#6#2 0
f#4#5#2 0
f#4#4#2 77000
f#4#3#2 0
f#4#1#2 0
f#4#3#6 0
f#4#3#5 40000
f#4#3#1 42000
f#4#6#3 0
f#4#5#3 0
f#4#4#3 100000
f#4#1#3 0
f#4#5#6 0
f#4#5#1 0
f#4#6#5 0
f#4#4#5 0
f#4#1#5 0
f#4#6#1 0
f#4#4#6 0
f#4#1#6 0
f#4#4#1 0
f#5#2#6 0
f#5#2#4 0
f#5#2#3 0
f#5#2#1 0
f#5#6#2 0
f#5#5#2 0
f#5#4#2 0
f#5#3#2 0
f#5#1#2 0
f#5#3#6 0
f#5#3#4 0
f#5#3#1 0
f#5#6#3 0
f#5#5#3 0
f#5#4#3 0
f#5#1#3 0
f#5#4#6 0
f#5#4#1 0
f#5#6#4 0
f#5#5#4 40000
f#5#1#4 0
f#5#6#1 0
f#5#5#6 83000
f#5#1#6 0
f#5#5#1 0
f#6#2#5 0
f#6#2#4 0
f#6#2#3 0
f#6#2#1 0
f#6#6#2 0
f#6#5#2 0
f#6#4#2 18000
f#6#3#2 0
f#6#1#2 0
f#6#3#5 0
f#6#3#4 0
f#6#3#1 0
f#6#6#3 0
f#6#5#3 0
f#6#4#3 0
f#6#1#3 0
f#6#4#5 0
f#6#4#1 0
f#6#6#4 55000
f#6#5#4 0
f#6#1#4 0
f#6#5#1 0
f#6#6#5 0
f#6#1#5 18000
f#6#6#1 78000
